; benchmark generated from python API
(set-info :status unknown)
(declare-fun return () (_ BitVec 32))
(declare-fun rdi () (_ BitVec 32))
(assert
 (let (($x311 (= (_ bv0 32) return)))
 (let ((?x6 ((_ extract 31 0) rdi)))
 (let (($x11 (bvsge (_ bv17 32) ?x6)))
 (let (($x307 (and $x11 $x311)))
 (let (($x41 (bvslt (_ bv17 32) ?x6)))
 (let (($x162 (bvslt (_ bv21 32) ?x6)))
 (let (($x310 (and $x162 $x41 $x311)))
 (let (($x325 (= (_ bv4294966936 32) return)))
 (let (($x45 (bvsge (_ bv21 32) ?x6)))
 (let (($x69 (bvsle (_ bv1 32) ?x6)))
 (let (($x66 (bvsle (_ bv2 32) ?x6)))
 (let (($x207 (bvsle (_ bv3 32) ?x6)))
 (let (($x205 (bvsle (_ bv4 32) ?x6)))
 (let (($x206 (bvsle (_ bv5 32) ?x6)))
 (let (($x221 (bvsle (_ bv6 32) ?x6)))
 (let (($x223 (bvsle (_ bv7 32) ?x6)))
 (let (($x228 (bvsle (_ bv8 32) ?x6)))
 (let (($x231 (bvsle (_ bv9 32) ?x6)))
 (let (($x237 (bvsle (_ bv10 32) ?x6)))
 (let (($x234 (bvsle (_ bv11 32) ?x6)))
 (let (($x246 (bvsle (_ bv12 32) ?x6)))
 (let (($x250 (bvsle (_ bv13 32) ?x6)))
 (let (($x254 (bvsle (_ bv14 32) ?x6)))
 (let (($x259 (bvsle (_ bv15 32) ?x6)))
 (let (($x265 (bvsle (_ bv16 32) ?x6)))
 (let (($x264 (bvsle (_ bv17 32) ?x6)))
 (let (($x277 (bvsle (_ bv18 32) ?x6)))
 (let (($x279 (bvsgt (_ bv19 32) ?x6)))
 (let (($x326 (and $x279 $x277 $x264 $x265 $x259 $x254 $x250 $x246 $x234 $x237 $x231 $x228 $x223 $x221 $x206 $x205 $x207 $x66 $x69 $x45 $x41 $x325)))
 (let (($x322 (= (_ bv4294966916 32) return)))
 (let (($x278 (bvsle (_ bv19 32) ?x6)))
 (let (($x299 (bvsgt (_ bv20 32) ?x6)))
 (let (($x323 (and $x299 $x278 $x277 $x264 $x265 $x259 $x254 $x250 $x246 $x234 $x237 $x231 $x228 $x223 $x221 $x206 $x205 $x207 $x66 $x69 $x45 $x41 $x322)))
 (let (($x319 (= (_ bv4294966896 32) return)))
 (let (($x286 (bvsle (_ bv20 32) ?x6)))
 (let (($x306 (bvsgt (_ bv21 32) ?x6)))
 (let (($x320 (and $x306 $x286 $x278 $x277 $x264 $x265 $x259 $x254 $x250 $x246 $x234 $x237 $x231 $x228 $x223 $x221 $x206 $x205 $x207 $x66 $x69 $x45 $x41 $x319)))
 (let (($x308 (= (_ bv4294966876 32) return)))
 (let (($x297 (bvsle (_ bv21 32) ?x6)))
 (let (($x313 (bvsgt (_ bv22 32) ?x6)))
 (let (($x298 (and $x313 $x297 $x286 $x278 $x277 $x264 $x265 $x259 $x254 $x250 $x246 $x234 $x237 $x231 $x228 $x223 $x221 $x206 $x205 $x207 $x66 $x69 $x45 $x41 $x308)))
 (let (($x327 (or $x298 $x320 $x323 $x326 $x310 $x307)))
 (let (($x330 (not $x327)))
 (let ((?x201 (bvmul (_ bv20 32) ?x6)))
 (let (($x316 (= return ?x201)))
 (let (($x315 (and $x45 $x41 $x316)))
 (let (($x305 (or $x315 $x310 $x307)))
 (let (($x329 (not $x305)))
 (let (($x331 (and $x329 $x330)))
 (let (($x328 (and $x305 $x327)))
 (let (($x332 (or $x328 $x331)))
 (not $x332)))))))))))))))))))))))))))))))))))))))))))))))))))))
(check-sat)
